7860
7398
6901
4415
10155
4420
5210
5985
8076
3197
6769
714
8373
5201
5235
533
1410
3893
3990
2657
5405
3530
3771
2045
7050
1594
7099
9493
3373
1561
8199
1049
8695
6338
4052
6701
7947
8342
8557
1910
5375
6486
2922
1402
9053
1067
6059
9581
1425
5948
1258
